# Solution for model GasLib-40
# Objective value = 1.1419005029440170e+01
loadshed[innode_1] 0
loadshed[innode_2] 0
loadshed[innode_3] 0
loadshed[innode_4] 0
loadshed[innode_5] 0
loadshed[innode_6] 0
loadshed[innode_7] 0
loadshed[innode_8] 0
loadshed[source_1] -2.2772014282200104e-01
loadshed[source_2] -5.6264276794732559e-02
loadshed[source_3] 3.5621533216832424e-01
loadshed[sink_1] 0
loadshed[sink_2] 0
loadshed[sink_3] 0
loadshed[sink_4] 0
loadshed[sink_5] 0
loadshed[sink_6] 0
loadshed[sink_7] 0
loadshed[sink_8] 0
loadshed[sink_9] 0
loadshed[sink_10] 0
loadshed[sink_11] 0
loadshed[sink_12] 6.9823215466640520e-01
loadshed[sink_13] 0
loadshed[sink_14] 0
loadshed[sink_15] 0
loadshed[sink_16] 0
loadshed[sink_17] 0
loadshed[sink_18] 0
loadshed[sink_19] 0
loadshed[sink_20] 0
loadshed[sink_21] 0
loadshed[sink_22] 0
loadshed[sink_23] 0
loadshed[sink_24] 0
loadshed[sink_25] 0
loadshed[sink_26] 0
loadshed[sink_27] 0
loadshed[sink_28] 0
loadshed[sink_29] 0
flow[source_1,sink_3] 1.9409061841210314e+02
flow[innode_1,sink_16] 1.6354166666666970e+01
flow[innode_6,sink_13] 1.2703069700096153e+01
flow[sink_13,sink_14] -3.6510969665705151e+00
flow[sink_14,sink_10] -2.0005263633237064e+01
flow[sink_25,sink_26] 1.7171654817026345e+02
flow[sink_26,sink_9] 135.76849497056
flow[sink_9,sink_18] 1.1941432830389333e+02
flow[sink_26,sink_4] 1.9593886533037448e+01
flow[sink_4,sink_20] 3.2397198663708195e+00
flow[sink_18,sink_6] 1.0306016163722666e+02
flow[sink_25,innode_8] -1.6138228507876676e+02
flow[sink_6,sink_7] 53.9976616372265
flow[sink_6,sink_22] 3.2708333333333641e+01
flow[sink_7,sink_24] 3.7643494970559829e+01
flow[sink_22,sink_1] 1.6354166666666970e+01
flow[sink_24,sink_21] 2.1289328303893164e+01
flow[sink_21,sink_12] 4.9351616372264981e+00
flow[sink_7,sink_5] 0
flow[sink_5,sink_17] -1.6354166666667197e+01
flow[sink_17,sink_4] 0
flow[sink_17,sink_8] -3.2708333333333840e+01
flow[sink_3,sink_23] 16.3541666666697
flow[sink_8,sink_20] -4.9062500000000512e+01
flow[sink_25,sink_20] 6.2176946800296207e+01
flow[sink_25,sink_15] -1.0156844625855533e+02
flow[sink_15,sink_29] -6.5403183053049915e+01
flow[sink_29,sink_28] 1.6354166666667879e+01
flow[sink_29,sink_2] 6.8873596538838385e+01
flow[sink_2,sink_15] 5.2519429872171713e+01
flow[sink_29,innode_7] -1.6698511292522284e+02
flow[innode_4,sink_19] 1.0177609696658402e+02
flow[sink_19,innode_3] 3.3704777118148172e+01
flow[innode_4,innode_5] 0
flow[sink_27,innode_5] 0
flow[sink_27,sink_19] -1.6354166666679703e+01
flow[sink_10,sink_11] 3.2708333333333641e+01
flow[sink_10,innode_2] -3.5362986515089482e+01
flow[sink_10,innode_3] -3.3704777118148172e+01
flow[innode_6,sink_25] -1.2703069700096153e+01
flow[sink_11,innode_1] 1.6354166666666970e+01
flow[sink_19,innode_2] 3.5362986515089482e+01
flow[source_3,innode_4] 1.0177609696658402e+02
flow[source_2,innode_7] 1.6698511292522284e+02
flow[sink_3,innode_8] 1.6138228507876676e+02
pressure[innode_1] 74.8692597860668
pressure[innode_2] 7.6890040984910584e+01
pressure[innode_3] 7.6815405572634418e+01
pressure[innode_4] 81.01325
pressure[innode_5] 7.6538910987767082e+01
pressure[innode_6] 7.4138236165479228e+01
pressure[innode_7] 81.01325
pressure[innode_8] 8.0364479207952044e+01
pressure[source_1] 81.01325
pressure[source_2] 81.01325
pressure[source_3] 81.01325
pressure[sink_1] 4.4744388598084541e+01
pressure[sink_2] 7.4802406463781665e+01
pressure[sink_3] 8.0364479207952044e+01
pressure[sink_4] 5.9553123076331389e+01
pressure[sink_5] 5.3444038296112744e+01
pressure[sink_6] 4.6845466208471912e+01
pressure[sink_7] 4.6104207025137562e+01
pressure[sink_8] 5.5896475892294639e+01
pressure[sink_9] 5.3918245688556247e+01
pressure[sink_10] 7.5020961093670351e+01
pressure[sink_11] 74.8692597860668
pressure[sink_12] 1.0132500000000035e+00
pressure[sink_13] 7.4068206265102759e+01
pressure[sink_14] 7.4074740214129136e+01
pressure[sink_15] 7.4630942100344939e+01
pressure[sink_16] 7.3847609951249126e+01
pressure[sink_17] 5.4662305501467493e+01
pressure[sink_18] 4.9597479374612327e+01
pressure[sink_19] 7.6890040984910584e+01
pressure[sink_20] 5.9315442163059195e+01
pressure[sink_21] 2.7694506129737047e+00
pressure[sink_22] 4.5808157740439555e+01
pressure[sink_23] 8.0199761196292258e+01
pressure[sink_24] 3.0052101437943008e+00
pressure[sink_25] 7.4138236165479228e+01
pressure[sink_26] 6.2044340521383958e+01
pressure[sink_27] 7.6538910987767082e+01
pressure[sink_28] 7.6251770119061433e+01
pressure[sink_29] 7.6547052392678609e+01
interdiction[source_1,sink_3] 0
interdiction[innode_1,sink_16] 0
interdiction[innode_6,sink_13] 0
interdiction[sink_13,sink_14] 0
interdiction[sink_14,sink_10] 0
interdiction[sink_25,sink_26] 0
interdiction[sink_26,sink_9] 0
interdiction[sink_9,sink_18] 0
interdiction[sink_26,sink_4] 0
interdiction[sink_4,sink_20] 0
interdiction[sink_18,sink_6] 0
interdiction[sink_25,innode_8] 0
interdiction[sink_6,sink_7] 0
interdiction[sink_6,sink_22] 0
interdiction[sink_7,sink_24] 0
interdiction[sink_22,sink_1] 0
interdiction[sink_24,sink_21] 0
interdiction[sink_21,sink_12] 0
interdiction[sink_7,sink_5] 1
interdiction[sink_5,sink_17] 0
interdiction[sink_17,sink_4] 1
interdiction[sink_17,sink_8] 0
interdiction[sink_3,sink_23] 0
interdiction[sink_8,sink_20] 0
interdiction[sink_25,sink_20] 0
interdiction[sink_25,sink_15] 0
interdiction[sink_15,sink_29] 0
interdiction[sink_29,sink_28] 0
interdiction[sink_29,sink_2] 0
interdiction[sink_2,sink_15] 0
interdiction[sink_29,innode_7] 0
interdiction[innode_4,sink_19] 0
interdiction[sink_19,innode_3] 0
interdiction[innode_4,innode_5] 1
interdiction[sink_27,innode_5] 0
interdiction[sink_27,sink_19] 0
interdiction[sink_10,sink_11] 0
interdiction[sink_10,innode_2] 0
interdiction[sink_10,innode_3] 0
interdiction[innode_6,sink_25] 0
interdiction[sink_11,innode_1] 0
interdiction[sink_19,innode_2] 0
interdiction[source_3,innode_4] 0
interdiction[source_2,innode_7] 0
interdiction[sink_3,innode_8] 0
WCcheckFlow[source_1,sink_3] 39
WCcheckFlow[innode_1,sink_16] 1
WCcheckFlow[innode_6,sink_13] 13
WCcheckFlow[sink_13,sink_14] 12
WCcheckFlow[sink_14,sink_10] 11
WCcheckFlow[sink_25,sink_26] 15
WCcheckFlow[sink_26,sink_9] 9
WCcheckFlow[sink_9,sink_18] 8
WCcheckFlow[sink_26,sink_4] 5
WCcheckFlow[sink_4,sink_20] 4
WCcheckFlow[sink_18,sink_6] 7
WCcheckFlow[sink_25,innode_8] -36
WCcheckFlow[sink_6,sink_7] 4
WCcheckFlow[sink_6,sink_22] 2
WCcheckFlow[sink_7,sink_24] 3
WCcheckFlow[sink_22,sink_1] 1
WCcheckFlow[sink_24,sink_21] 2
WCcheckFlow[sink_21,sink_12] 1
WCcheckFlow[sink_7,sink_5] 0
WCcheckFlow[sink_5,sink_17] -1
WCcheckFlow[sink_17,sink_4] 0
WCcheckFlow[sink_17,sink_8] -2
WCcheckFlow[sink_3,sink_23] 1
WCcheckFlow[sink_8,sink_20] -3
WCcheckFlow[sink_25,sink_20] 0
WCcheckFlow[sink_25,sink_15] 6
WCcheckFlow[sink_15,sink_29] 5
WCcheckFlow[sink_29,sink_28] 1
WCcheckFlow[sink_29,sink_2] 1
WCcheckFlow[sink_2,sink_15] 0
WCcheckFlow[sink_29,innode_7] 2
WCcheckFlow[innode_4,sink_19] -2
WCcheckFlow[sink_19,innode_3] -5
WCcheckFlow[innode_4,innode_5] 0
WCcheckFlow[sink_27,innode_5] 1
WCcheckFlow[sink_27,sink_19] -2
WCcheckFlow[sink_10,sink_11] 3
WCcheckFlow[sink_10,innode_2] 1
WCcheckFlow[sink_10,innode_3] 6
WCcheckFlow[innode_6,sink_25] -14
WCcheckFlow[sink_11,innode_1] 2
WCcheckFlow[sink_19,innode_2] 0
WCcheckFlow[source_3,innode_4] -1
WCcheckFlow[source_2,innode_7] -1
WCcheckFlow[sink_3,innode_8] 37
